NAME : E-n15-k5
CAPACITY : 1061
NODE_COORD_SECTION
1   484   254
2   186   290
3   324   383
4   262   395
5   190   431
6   395   160
7   194   126
8   332   446
9   422   99
10   244   498
11   364   312
12   151   448
13   309   374
14   494   77
15   138   460
DEMAND_SECTION
1   0
2   86
3   69
4   7
5   88
6   51
7   82
8   75
9   66
10   49
11   8
12   28
13   61
14   80
15   74
DEPOT_SECTION
    1
    -1
EOF